SDVRP instances/p01/p01_00_tsplib0_split0.vrp
NAME:.\SDVRP_split
BEST_KNOWN: 0
COMMENT: 0
DIMENSION: 159
CAPACITY: 160
EDGE_WEIGHT_FORMAT: FUNCTION
EDGE_WEIGHT_TYPE: EXACT_2D
NODE_COORD_SECTION
1 0.00000 0.00000
2 7 12
3 7 12
4 7 12
5 7 12
6 19 9
7 19 9
8 19 9
9 19 9
10 19 9
11 22 24
12 -10 -14
13 -10 -14
14 10 -10
15 10 -10
16 10 -10
17 10 -10
18 -9 7
19 -9 7
20 -9 7
21 -9 7
22 -9 7
23 -13 23
24 -13 23
25 -13 23
26 1 22
27 1 22
28 1 22
29 1 22
30 1 22
31 22 -7
32 22 -7
33 22 -7
34 21 -19
35 21 -19
36 21 -19
37 12 1
38 12 1
39 12 1
40 1 -8
41 1 -8
42 1 -8
43 1 -8
44 1 -8
45 -25 -15
46 -25 -15
47 -25 -15
48 -25 -15
49 -25 -15
50 -18 2
51 -18 2
52 -18 2
53 -18 2
54 6 -24
55 6 -24
56 22 1
57 22 1
58 22 1
59 22 1
60 22 1
61 -3 -17
62 -3 -17
63 -13 -7
64 -13 -7
65 -13 -7
66 -17 -27
67 -17 -27
68 27 18
69 27 18
70 27 18
71 27 18
72 32 2
73 12 17
74 -14 17
75 -22 12
76 -22 12
77 -23 -2
78 -23 -2
79 -23 -2
80 -23 -2
81 -3 28
82 -3 28
83 -3 28
84 -3 28
85 0 8
86 0 8
87 0 8
88 0 8
89 0 8
90 13 27
91 13 27
92 13 27
93 13 27
94 28 8
95 28 8
96 28 8
97 28 -13
98 28 -13
99 28 -13
100 7 29
101 7 29
102 7 29
103 8 6
104 8 6
105 8 6
106 16 -30
107 16 -30
108 16 -30
109 16 -30
110 16 -30
111 31 -7
112 31 -7
113 31 -7
114 32 23
115 32 23
116 33 29
117 33 29
118 33 29
119 2 -18
120 2 -18
121 15 -5
122 15 -5
123 15 -5
124 15 -5
125 15 -5
126 29 -25
127 29 -25
128 29 -25
129 29 -25
130 -25 -34
131 -25 -34
132 -25 -34
133 -25 -34
134 -20 -23
135 -20 -23
136 -20 -23
137 -20 -23
138 -9 -30
139 -9 -30
140 -9 -30
141 -9 -30
142 -25 24
143 -25 24
144 -25 24
145 0 -25
146 9 -30
147 9 -30
148 2 -1
149 2 -1
150 2 -1
151 -5 -8
152 -5 -8
153 -5 -8
154 -5 15
155 -5 15
156 18 -12
157 18 -12
158 26 -3
159 26 -3
DEMAND_SECTION
1 0
2 2
3 2
4 2
5 1
6 16
7 8
8 2
9 2
10 2
11 16
12 8
13 1
14 16
15 2
16 2
17 1
18 8
19 2
20 2
21 2
22 1
23 16
24 2
25 1
26 16
27 2
28 2
29 2
30 1
31 8
32 2
33 1
34 2
35 2
36 1
37 16
38 2
39 1
40 16
41 8
42 2
43 2
44 1
45 16
46 2
47 2
48 2
49 1
50 16
51 2
52 2
53 1
54 8
55 2
56 8
57 2
58 2
59 2
60 1
61 2
62 1
63 32
64 8
65 1
66 8
67 1
68 16
69 8
70 2
71 2
72 8
73 8
74 16
75 8
76 2
77 16
78 8
79 2
80 2
81 2
82 2
83 2
84 1
85 8
86 2
87 2
88 2
89 1
90 8
91 2
92 2
93 2
94 2
95 2
96 2
97 16
98 2
99 1
100 8
101 2
102 1
103 8
104 2
105 2
106 16
107 2
108 2
109 2
110 1
111 16
112 8
113 2
114 16
115 1
116 2
117 2
118 2
119 8
120 1
121 8
122 2
123 2
124 2
125 1
126 8
127 2
128 2
129 2
130 2
131 2
132 2
133 1
134 16
135 8
136 2
137 1
138 8
139 2
140 2
141 1
142 8
143 2
144 1
145 16
146 8
147 2
148 2
149 2
150 1
151 16
152 8
153 1
154 16
155 1
156 16
157 2
158 8
159 2
DEPOT_SECTION
1
-1
EOF