SDVRP instances/p01/p01_00_tsplib0_split0.sol
158 -20 21 19 17 18 49 50 51 52 78 77 79 76 74 75 142 141 143 23 22 24 73 154 153 87 88 84 86 85 -29 25 28 27 26 83 82 81 80 99 100 101 90 92 91 89 10 115 116 117 114 113 68 69 67 70 72 3 2 1 4 102 104 103 -38 36 37 5 8 9 7 6 94 95 93 71 111 112 110 97 96 98 30 31 32 158 157 57 59 58 56 55 120 124 121 122 123 -39 42 40 41 43 118 119 144 53 54 145 146 108 107 106 109 105 125 127 128 126 35 33 34 155 156 15 16 13 14 149 147 148 -62 63 64 44 46 47 48 45 135 134 133 136 130 131 129 132 66 65 138 137 139 140 60 61 12 11 151 152 150 0 





OBJ=
524.810
BEST_KNOWN=
0.000